p cnf 400 1
400 0
w 1 0.590631
w 2 1 0.344498
w 2 -1 0.845495
w 3 2 0.92221
w 3 -2 0.421997
w 4 3 1
w 4 -3 0
w 5 4 0.30789
w 5 -4 0.373483
w 6 5 1
w 6 -5 0
w 7 6 0
w 7 -6 1
w 8 7 0
w 8 -7 1
w 9 8 1
w 9 -8 0
w 10 9 1
w 10 -9 0
w 11 10 0.668285
w 11 -10 0.560574
w 12 11 0.799976
w 12 -11 0.979837
w 13 12 0.0379551
w 13 -12 0.767169
w 14 13 0
w 14 -13 1
w 15 14 1
w 15 -14 0
w 16 15 0
w 16 -15 1
w 17 16 1
w 17 -16 0
w 18 17 0
w 18 -17 1
w 19 18 0.833062
w 19 -18 0.863129
w 20 19 0
w 20 -19 1
w 21 1 0.129514
w 21 -1 0.0800485
w 22 21 2 1
w 22 21 -2 0
w 22 -21 2 0
w 22 -21 -2 0
w 23 22 3 0.404943
w 23 22 -3 0.111258
w 23 -22 3 0.747102
w 23 -22 -3 0.38478
w 24 23 4 0.785057
w 24 23 -4 0.151949
w 24 -23 4 0.92655
w 24 -23 -4 0.369773
w 25 24 5 0
w 25 24 -5 1
w 25 -24 5 1
w 25 -24 -5 0
w 26 25 6 0.757071
w 26 25 -6 0.833504
w 26 -25 6 0.269555
w 26 -25 -6 0.590132
w 27 26 7 0.294069
w 27 26 -7 0.785554
w 27 -26 7 0.497809
w 27 -26 -7 0.423582
w 28 27 8 0.562712
w 28 27 -8 0.786577
w 28 -27 8 0.144444
w 28 -27 -8 0.407081
w 29 28 9 0.0915703
w 29 28 -9 0.812024
w 29 -28 9 0.0744431
w 29 -28 -9 0.838672
w 30 29 10 0
w 30 29 -10 0
w 30 -29 10 1
w 30 -29 -10 1
w 31 30 11 0.612368
w 31 30 -11 0.699589
w 31 -30 11 0.488881
w 31 -30 -11 0.90986
w 32 31 12 1
w 32 31 -12 1
w 32 -31 12 0
w 32 -31 -12 0
w 33 32 13 1
w 33 32 -13 1
w 33 -32 13 1
w 33 -32 -13 0
w 34 33 14 1
w 34 33 -14 0
w 34 -33 14 0
w 34 -33 -14 1
w 35 34 15 0
w 35 34 -15 0
w 35 -34 15 1
w 35 -34 -15 1
w 36 35 16 0.151617
w 36 35 -16 0.826845
w 36 -35 16 0.606637
w 36 -35 -16 0.50037
w 37 36 17 0.60014
w 37 36 -17 0.112738
w 37 -36 17 0.251015
w 37 -36 -17 0.0890205
w 38 37 18 1
w 38 37 -18 0
w 38 -37 18 0
w 38 -37 -18 0
w 39 38 19 0.946592
w 39 38 -19 0.0498049
w 39 -38 19 0.574406
w 39 -38 -19 0.98921
w 40 39 20 1
w 40 39 -20 0
w 40 -39 20 1
w 40 -39 -20 1
w 41 21 0.101297
w 41 -21 0.72457
w 42 41 22 0
w 42 41 -22 1
w 42 -41 22 1
w 42 -41 -22 1
w 43 42 23 0.683872
w 43 42 -23 0.708098
w 43 -42 23 0.131655
w 43 -42 -23 0.284012
w 44 43 24 0.382671
w 44 43 -24 0.373033
w 44 -43 24 0.843435
w 44 -43 -24 0.778736
w 45 44 25 0.532965
w 45 44 -25 0.153354
w 45 -44 25 0.472836
w 45 -44 -25 0.479557
w 46 45 26 1
w 46 45 -26 0
w 46 -45 26 0
w 46 -45 -26 1
w 47 46 27 1
w 47 46 -27 0
w 47 -46 27 1
w 47 -46 -27 0
w 48 47 28 1
w 48 47 -28 1
w 48 -47 28 0
w 48 -47 -28 0
w 49 48 29 0.654639
w 49 48 -29 0.171727
w 49 -48 29 0.457701
w 49 -48 -29 0.786294
w 50 49 30 1
w 50 49 -30 0
w 50 -49 30 1
w 50 -49 -30 1
w 51 50 31 0.654937
w 51 50 -31 0.101054
w 51 -50 31 0.981063
w 51 -50 -31 0.134494
w 52 51 32 0
w 52 51 -32 0
w 52 -51 32 0
w 52 -51 -32 1
w 53 52 33 0.114639
w 53 52 -33 0.451018
w 53 -52 33 0.285748
w 53 -52 -33 0.600404
w 54 53 34 0.696367
w 54 53 -34 0.142279
w 54 -53 34 0.846454
w 54 -53 -34 0.184222
w 55 54 35 0.501093
w 55 54 -35 0.355949
w 55 -54 35 0.349583
w 55 -54 -35 0.287387
w 56 55 36 0.628121
w 56 55 -36 0.456352
w 56 -55 36 0.64046
w 56 -55 -36 0.750093
w 57 56 37 1
w 57 56 -37 1
w 57 -56 37 1
w 57 -56 -37 0
w 58 57 38 0.809318
w 58 57 -38 0.158055
w 58 -57 38 0.142785
w 58 -57 -38 0.53949
w 59 58 39 0
w 59 58 -39 0
w 59 -58 39 0
w 59 -58 -39 1
w 60 59 40 0
w 60 59 -40 0
w 60 -59 40 1
w 60 -59 -40 0
w 61 41 1
w 61 -41 0
w 62 61 42 0.634529
w 62 61 -42 0.638278
w 62 -61 42 0.870612
w 62 -61 -42 0.446217
w 63 62 43 0
w 63 62 -43 1
w 63 -62 43 1
w 63 -62 -43 1
w 64 63 44 0
w 64 63 -44 0
w 64 -63 44 1
w 64 -63 -44 1
w 65 64 45 0.103832
w 65 64 -45 0.58493
w 65 -64 45 0.535785
w 65 -64 -45 0.216074
w 66 65 46 0
w 66 65 -46 0
w 66 -65 46 1
w 66 -65 -46 0
w 67 66 47 0.890406
w 67 66 -47 0.317229
w 67 -66 47 0.987002
w 67 -66 -47 0.179101
w 68 67 48 0.621531
w 68 67 -48 0.817379
w 68 -67 48 0.771066
w 68 -67 -48 0.0677474
w 69 68 49 0
w 69 68 -49 1
w 69 -68 49 0
w 69 -68 -49 1
w 70 69 50 0
w 70 69 -50 1
w 70 -69 50 0
w 70 -69 -50 1
w 71 70 51 1
w 71 70 -51 1
w 71 -70 51 0
w 71 -70 -51 0
w 72 71 52 0.9346
w 72 71 -52 0.813276
w 72 -71 52 0.416809
w 72 -71 -52 0.428193
w 73 72 53 1
w 73 72 -53 0
w 73 -72 53 0
w 73 -72 -53 1
w 74 73 54 1
w 74 73 -54 0
w 74 -73 54 0
w 74 -73 -54 0
w 75 74 55 0.398857
w 75 74 -55 0.135152
w 75 -74 55 0.955936
w 75 -74 -55 0.499127
w 76 75 56 0.345724
w 76 75 -56 0.0209184
w 76 -75 56 0.0293674
w 76 -75 -56 0.100627
w 77 76 57 0.139977
w 77 76 -57 0.378699
w 77 -76 57 0.0904265
w 77 -76 -57 0.835516
w 78 77 58 1
w 78 77 -58 0
w 78 -77 58 0
w 78 -77 -58 0
w 79 78 59 1
w 79 78 -59 0
w 79 -78 59 1
w 79 -78 -59 1
w 80 79 60 0
w 80 79 -60 1
w 80 -79 60 1
w 80 -79 -60 0
w 81 61 0
w 81 -61 1
w 82 81 62 0.0386576
w 82 81 -62 0.22767
w 82 -81 62 0.822331
w 82 -81 -62 0.384382
w 83 82 63 1
w 83 82 -63 0
w 83 -82 63 0
w 83 -82 -63 1
w 84 83 64 0.842771
w 84 83 -64 0.827192
w 84 -83 64 0.0562636
w 84 -83 -64 0.735942
w 85 84 65 0.0620953
w 85 84 -65 0.0459215
w 85 -84 65 0.795616
w 85 -84 -65 0.116299
w 86 85 66 0
w 86 85 -66 1
w 86 -85 66 1
w 86 -85 -66 1
w 87 86 67 0
w 87 86 -67 1
w 87 -86 67 0
w 87 -86 -67 1
w 88 87 68 0
w 88 87 -68 1
w 88 -87 68 1
w 88 -87 -68 0
w 89 88 69 0.861618
w 89 88 -69 0.477107
w 89 -88 69 0.300558
w 89 -88 -69 0.613963
w 90 89 70 0
w 90 89 -70 0
w 90 -89 70 0
w 90 -89 -70 1
w 91 90 71 0
w 91 90 -71 1
w 91 -90 71 0
w 91 -90 -71 0
w 92 91 72 0
w 92 91 -72 0
w 92 -91 72 0
w 92 -91 -72 1
w 93 92 73 1
w 93 92 -73 1
w 93 -92 73 1
w 93 -92 -73 0
w 94 93 74 0
w 94 93 -74 0
w 94 -93 74 1
w 94 -93 -74 0
w 95 94 75 0.845377
w 95 94 -75 0.00752904
w 95 -94 75 0.99788
w 95 -94 -75 0.45934
w 96 95 76 1
w 96 95 -76 1
w 96 -95 76 1
w 96 -95 -76 0
w 97 96 77 1
w 97 96 -77 0
w 97 -96 77 1
w 97 -96 -77 0
w 98 97 78 0
w 98 97 -78 0
w 98 -97 78 1
w 98 -97 -78 1
w 99 98 79 0.156244
w 99 98 -79 0.87348
w 99 -98 79 0.669808
w 99 -98 -79 0.258181
w 100 99 80 0
w 100 99 -80 0
w 100 -99 80 0
w 100 -99 -80 1
w 101 81 0.903181
w 101 -81 0.869674
w 102 101 82 0.901061
w 102 101 -82 0.329014
w 102 -101 82 0.177456
w 102 -101 -82 0.0632076
w 103 102 83 1
w 103 102 -83 1
w 103 -102 83 1
w 103 -102 -83 0
w 104 103 84 1
w 104 103 -84 0
w 104 -103 84 0
w 104 -103 -84 1
w 105 104 85 1
w 105 104 -85 0
w 105 -104 85 1
w 105 -104 -85 1
w 106 105 86 1
w 106 105 -86 1
w 106 -105 86 1
w 106 -105 -86 0
w 107 106 87 0.744743
w 107 106 -87 0.445896
w 107 -106 87 0.890246
w 107 -106 -87 0.614417
w 108 107 88 1
w 108 107 -88 0
w 108 -107 88 1
w 108 -107 -88 0
w 109 108 89 0
w 109 108 -89 1
w 109 -108 89 0
w 109 -108 -89 0
w 110 109 90 1
w 110 109 -90 1
w 110 -109 90 0
w 110 -109 -90 0
w 111 110 91 1
w 111 110 -91 1
w 111 -110 91 1
w 111 -110 -91 0
w 112 111 92 0
w 112 111 -92 0
w 112 -111 92 0
w 112 -111 -92 1
w 113 112 93 1
w 113 112 -93 0
w 113 -112 93 1
w 113 -112 -93 1
w 114 113 94 0.0268619
w 114 113 -94 0.502376
w 114 -113 94 0.898035
w 114 -113 -94 0.351359
w 115 114 95 0
w 115 114 -95 1
w 115 -114 95 0
w 115 -114 -95 1
w 116 115 96 0.0688704
w 116 115 -96 0.872441
w 116 -115 96 0.374472
w 116 -115 -96 0.655861
w 117 116 97 0.559459
w 117 116 -97 0.417514
w 117 -116 97 0.479663
w 117 -116 -97 0.754547
w 118 117 98 0.532215
w 118 117 -98 0.629544
w 118 -117 98 0.191717
w 118 -117 -98 0.365974
w 119 118 99 1
w 119 118 -99 0
w 119 -118 99 0
w 119 -118 -99 0
w 120 119 100 0.51978
w 120 119 -100 0.532325
w 120 -119 100 0.40024
w 120 -119 -100 0.417815
w 121 101 0.75713
w 121 -101 0.504368
w 122 121 102 0.414419
w 122 121 -102 0.133274
w 122 -121 102 0.0244305
w 122 -121 -102 0.483289
w 123 122 103 0
w 123 122 -103 1
w 123 -122 103 1
w 123 -122 -103 0
w 124 123 104 0.36961
w 124 123 -104 0.712909
w 124 -123 104 0.0667366
w 124 -123 -104 0.901826
w 125 124 105 1
w 125 124 -105 0
w 125 -124 105 1
w 125 -124 -105 0
w 126 125 106 1
w 126 125 -106 0
w 126 -125 106 0
w 126 -125 -106 0
w 127 126 107 0.7527
w 127 126 -107 0.0702108
w 127 -126 107 0.805569
w 127 -126 -107 0.509831
w 128 127 108 0.314851
w 128 127 -108 0.92425
w 128 -127 108 0.707853
w 128 -127 -108 0.339282
w 129 128 109 0
w 129 128 -109 1
w 129 -128 109 0
w 129 -128 -109 1
w 130 129 110 0.103354
w 130 129 -110 0.973124
w 130 -129 110 0.409456
w 130 -129 -110 0.17009
w 131 130 111 0.75191
w 131 130 -111 0.428544
w 131 -130 111 0.142749
w 131 -130 -111 0.319351
w 132 131 112 0
w 132 131 -112 1
w 132 -131 112 1
w 132 -131 -112 0
w 133 132 113 0
w 133 132 -113 0
w 133 -132 113 1
w 133 -132 -113 1
w 134 133 114 1
w 134 133 -114 1
w 134 -133 114 0
w 134 -133 -114 0
w 135 134 115 1
w 135 134 -115 0
w 135 -134 115 1
w 135 -134 -115 1
w 136 135 116 0.518518
w 136 135 -116 0.194167
w 136 -135 116 0.747211
w 136 -135 -116 0.927974
w 137 136 117 0
w 137 136 -117 1
w 137 -136 117 0
w 137 -136 -117 1
w 138 137 118 0.105441
w 138 137 -118 0.362254
w 138 -137 118 0.451202
w 138 -137 -118 0.80764
w 139 138 119 1
w 139 138 -119 0
w 139 -138 119 0
w 139 -138 -119 1
w 140 139 120 0.226898
w 140 139 -120 0.479292
w 140 -139 120 0.605879
w 140 -139 -120 0.363483
w 141 121 0.689665
w 141 -121 0.907607
w 142 141 122 0
w 142 141 -122 1
w 142 -141 122 1
w 142 -141 -122 0
w 143 142 123 0
w 143 142 -123 1
w 143 -142 123 1
w 143 -142 -123 0
w 144 143 124 0.349645
w 144 143 -124 0.0152408
w 144 -143 124 0.637245
w 144 -143 -124 0.455085
w 145 144 125 0
w 145 144 -125 0
w 145 -144 125 0
w 145 -144 -125 1
w 146 145 126 0.374152
w 146 145 -126 0.555823
w 146 -145 126 0.931013
w 146 -145 -126 0.853444
w 147 146 127 1
w 147 146 -127 1
w 147 -146 127 0
w 147 -146 -127 1
w 148 147 128 0
w 148 147 -128 1
w 148 -147 128 1
w 148 -147 -128 1
w 149 148 129 0
w 149 148 -129 0
w 149 -148 129 1
w 149 -148 -129 1
w 150 149 130 1
w 150 149 -130 1
w 150 -149 130 1
w 150 -149 -130 0
w 151 150 131 0.0174098
w 151 150 -131 0.738362
w 151 -150 131 0.358997
w 151 -150 -131 0.711858
w 152 151 132 0
w 152 151 -132 0
w 152 -151 132 0
w 152 -151 -132 1
w 153 152 133 1
w 153 152 -133 1
w 153 -152 133 1
w 153 -152 -133 0
w 154 153 134 0
w 154 153 -134 0
w 154 -153 134 1
w 154 -153 -134 1
w 155 154 135 0
w 155 154 -135 0
w 155 -154 135 0
w 155 -154 -135 1
w 156 155 136 0.783654
w 156 155 -136 0.00402265
w 156 -155 136 0.467963
w 156 -155 -136 0.832463
w 157 156 137 0.485373
w 157 156 -137 0.570824
w 157 -156 137 0.0780048
w 157 -156 -137 0.197231
w 158 157 138 1
w 158 157 -138 0
w 158 -157 138 0
w 158 -157 -138 1
w 159 158 139 0.0547762
w 159 158 -139 0.774083
w 159 -158 139 0.175046
w 159 -158 -139 0.924866
w 160 159 140 1
w 160 159 -140 1
w 160 -159 140 0
w 160 -159 -140 1
w 161 141 1
w 161 -141 0
w 162 161 142 1
w 162 161 -142 1
w 162 -161 142 0
w 162 -161 -142 1
w 163 162 143 0
w 163 162 -143 1
w 163 -162 143 1
w 163 -162 -143 1
w 164 163 144 0.853101
w 164 163 -144 0.422419
w 164 -163 144 0.736726
w 164 -163 -144 0.866401
w 165 164 145 1
w 165 164 -145 1
w 165 -164 145 1
w 165 -164 -145 0
w 166 165 146 1
w 166 165 -146 1
w 166 -165 146 0
w 166 -165 -146 0
w 167 166 147 1
w 167 166 -147 1
w 167 -166 147 0
w 167 -166 -147 0
w 168 167 148 1
w 168 167 -148 0
w 168 -167 148 1
w 168 -167 -148 1
w 169 168 149 1
w 169 168 -149 0
w 169 -168 149 0
w 169 -168 -149 0
w 170 169 150 0.355162
w 170 169 -150 0.203008
w 170 -169 150 0.4769
w 170 -169 -150 0.221564
w 171 170 151 1
w 171 170 -151 1
w 171 -170 151 0
w 171 -170 -151 1
w 172 171 152 0.473304
w 172 171 -152 0.0454497
w 172 -171 152 0.015557
w 172 -171 -152 0.925741
w 173 172 153 1
w 173 172 -153 0
w 173 -172 153 1
w 173 -172 -153 1
w 174 173 154 0.270096
w 174 173 -154 0.49178
w 174 -173 154 0.349517
w 174 -173 -154 0.0808647
w 175 174 155 0.569303
w 175 174 -155 0.51704
w 175 -174 155 0.839013
w 175 -174 -155 0.0713646
w 176 175 156 0
w 176 175 -156 1
w 176 -175 156 0
w 176 -175 -156 0
w 177 176 157 0.937218
w 177 176 -157 0.734625
w 177 -176 157 0.122846
w 177 -176 -157 0.00511897
w 178 177 158 0.90557
w 178 177 -158 0.478423
w 178 -177 158 0.554546
w 178 -177 -158 0.921127
w 179 178 159 0
w 179 178 -159 0
w 179 -178 159 0
w 179 -178 -159 1
w 180 179 160 0
w 180 179 -160 1
w 180 -179 160 0
w 180 -179 -160 0
w 181 161 0
w 181 -161 1
w 182 181 162 0.0655078
w 182 181 -162 0.449625
w 182 -181 162 0.936115
w 182 -181 -162 0.644695
w 183 182 163 0.436751
w 183 182 -163 0.700782
w 183 -182 163 0.524243
w 183 -182 -163 0.373969
w 184 183 164 0
w 184 183 -164 1
w 184 -183 164 0
w 184 -183 -164 0
w 185 184 165 0.49905
w 185 184 -165 0.473786
w 185 -184 165 0.261675
w 185 -184 -165 0.188823
w 186 185 166 0.141572
w 186 185 -166 0.959308
w 186 -185 166 0.735162
w 186 -185 -166 0.601013
w 187 186 167 0.323321
w 187 186 -167 0.40997
w 187 -186 167 0.121336
w 187 -186 -167 0.549816
w 188 187 168 0.759822
w 188 187 -168 0.615323
w 188 -187 168 0.237856
w 188 -187 -168 0.695936
w 189 188 169 0
w 189 188 -169 1
w 189 -188 169 1
w 189 -188 -169 1
w 190 189 170 0.396208
w 190 189 -170 0.285341
w 190 -189 170 0.885745
w 190 -189 -170 0.340712
w 191 190 171 0.743257
w 191 190 -171 0.839762
w 191 -190 171 0.311786
w 191 -190 -171 0.00493256
w 192 191 172 0
w 192 191 -172 0
w 192 -191 172 0
w 192 -191 -172 1
w 193 192 173 0.00905069
w 193 192 -173 0.157487
w 193 -192 173 0.109119
w 193 -192 -173 0.558866
w 194 193 174 0.868941
w 194 193 -174 0.17419
w 194 -193 174 0.183574
w 194 -193 -174 0.564877
w 195 194 175 1
w 195 194 -175 1
w 195 -194 175 1
w 195 -194 -175 0
w 196 195 176 0
w 196 195 -176 1
w 196 -195 176 1
w 196 -195 -176 0
w 197 196 177 1
w 197 196 -177 0
w 197 -196 177 1
w 197 -196 -177 1
w 198 197 178 1
w 198 197 -178 1
w 198 -197 178 1
w 198 -197 -178 0
w 199 198 179 0.0163093
w 199 198 -179 0.889666
w 199 -198 179 0.085071
w 199 -198 -179 0.575175
w 200 199 180 0.954012
w 200 199 -180 0.749365
w 200 -199 180 0.0189579
w 200 -199 -180 0.51889
w 201 181 1
w 201 -181 0
w 202 201 182 1
w 202 201 -182 1
w 202 -201 182 0
w 202 -201 -182 1
w 203 202 183 0.501725
w 203 202 -183 0.532724
w 203 -202 183 0.34387
w 203 -202 -183 0.473415
w 204 203 184 0.182028
w 204 203 -184 0.47369
w 204 -203 184 0.225214
w 204 -203 -184 0.16669
w 205 204 185 0
w 205 204 -185 1
w 205 -204 185 0
w 205 -204 -185 0
w 206 205 186 0.522881
w 206 205 -186 0.823957
w 206 -205 186 0.623917
w 206 -205 -186 0.476893
w 207 206 187 0.642875
w 207 206 -187 0.995783
w 207 -206 187 0.756895
w 207 -206 -187 0.959416
w 208 207 188 1
w 208 207 -188 0
w 208 -207 188 0
w 208 -207 -188 1
w 209 208 189 0.14356
w 209 208 -189 0.206998
w 209 -208 189 0.218063
w 209 -208 -189 0.48743
w 210 209 190 0.121748
w 210 209 -190 0.669458
w 210 -209 190 0.154103
w 210 -209 -190 0.346962
w 211 210 191 0.615961
w 211 210 -191 0.579434
w 211 -210 191 0.735016
w 211 -210 -191 0.0537705
w 212 211 192 0.52355
w 212 211 -192 0.576651
w 212 -211 192 0.652172
w 212 -211 -192 0.147467
w 213 212 193 0
w 213 212 -193 0
w 213 -212 193 0
w 213 -212 -193 1
w 214 213 194 0.261564
w 214 213 -194 0.317865
w 214 -213 194 0.961548
w 214 -213 -194 0.894479
w 215 214 195 0
w 215 214 -195 0
w 215 -214 195 0
w 215 -214 -195 1
w 216 215 196 0.91055
w 216 215 -196 0.986699
w 216 -215 196 0.194927
w 216 -215 -196 0.0646529
w 217 216 197 1
w 217 216 -197 1
w 217 -216 197 0
w 217 -216 -197 1
w 218 217 198 0.289641
w 218 217 -198 0.311035
w 218 -217 198 0.393482
w 218 -217 -198 0.437108
w 219 218 199 0
w 219 218 -199 0
w 219 -218 199 1
w 219 -218 -199 1
w 220 219 200 0.67547
w 220 219 -200 0.919231
w 220 -219 200 0.938756
w 220 -219 -200 0.569949
w 221 201 0.585644
w 221 -201 0.607988
w 222 221 202 1
w 222 221 -202 0
w 222 -221 202 1
w 222 -221 -202 0
w 223 222 203 1
w 223 222 -203 0
w 223 -222 203 0
w 223 -222 -203 0
w 224 223 204 0.125552
w 224 223 -204 0.562708
w 224 -223 204 0.425358
w 224 -223 -204 0.415192
w 225 224 205 0.81884
w 225 224 -205 0.8523
w 225 -224 205 0.238323
w 225 -224 -205 0.437816
w 226 225 206 0
w 226 225 -206 1
w 226 -225 206 0
w 226 -225 -206 0
w 227 226 207 0.995714
w 227 226 -207 0.897649
w 227 -226 207 0.900782
w 227 -226 -207 0.581358
w 228 227 208 0.0732893
w 228 227 -208 0.0319529
w 228 -227 208 0.639095
w 228 -227 -208 0.156347
w 229 228 209 1
w 229 228 -209 1
w 229 -228 209 0
w 229 -228 -209 1
w 230 229 210 0
w 230 229 -210 1
w 230 -229 210 1
w 230 -229 -210 1
w 231 230 211 0.568832
w 231 230 -211 0.168446
w 231 -230 211 0.719985
w 231 -230 -211 0.807155
w 232 231 212 0.799735
w 232 231 -212 0.459384
w 232 -231 212 0.645443
w 232 -231 -212 0.856693
w 233 232 213 0.603856
w 233 232 -213 0.852407
w 233 -232 213 0.684733
w 233 -232 -213 0.504638
w 234 233 214 0
w 234 233 -214 1
w 234 -233 214 0
w 234 -233 -214 0
w 235 234 215 0.934965
w 235 234 -215 0.796945
w 235 -234 215 0.0383304
w 235 -234 -215 0.175165
w 236 235 216 1
w 236 235 -216 1
w 236 -235 216 0
w 236 -235 -216 1
w 237 236 217 0
w 237 236 -217 1
w 237 -236 217 0
w 237 -236 -217 0
w 238 237 218 0
w 238 237 -218 1
w 238 -237 218 1
w 238 -237 -218 1
w 239 238 219 0.488253
w 239 238 -219 0.473027
w 239 -238 219 0.672882
w 239 -238 -219 0.172986
w 240 239 220 0.106648
w 240 239 -220 0.363356
w 240 -239 220 0.555592
w 240 -239 -220 0.572366
w 241 221 1
w 241 -221 0
w 242 241 222 0.989767
w 242 241 -222 0.328196
w 242 -241 222 0.682495
w 242 -241 -222 0.113653
w 243 242 223 1
w 243 242 -223 1
w 243 -242 223 0
w 243 -242 -223 0
w 244 243 224 1
w 244 243 -224 0
w 244 -243 224 0
w 244 -243 -224 1
w 245 244 225 1
w 245 244 -225 0
w 245 -244 225 1
w 245 -244 -225 0
w 246 245 226 1
w 246 245 -226 1
w 246 -245 226 0
w 246 -245 -226 0
w 247 246 227 0.766888
w 247 246 -227 0.947577
w 247 -246 227 0.434293
w 247 -246 -227 0.959709
w 248 247 228 0
w 248 247 -228 1
w 248 -247 228 1
w 248 -247 -228 0
w 249 248 229 1
w 249 248 -229 1
w 249 -248 229 0
w 249 -248 -229 1
w 250 249 230 0.887253
w 250 249 -230 0.22859
w 250 -249 230 0.485351
w 250 -249 -230 0.185393
w 251 250 231 1
w 251 250 -231 0
w 251 -250 231 1
w 251 -250 -231 1
w 252 251 232 1
w 252 251 -232 0
w 252 -251 232 0
w 252 -251 -232 0
w 253 252 233 0
w 253 252 -233 0
w 253 -252 233 1
w 253 -252 -233 0
w 254 253 234 0.322155
w 254 253 -234 0.055731
w 254 -253 234 0.146957
w 254 -253 -234 0.385283
w 255 254 235 1
w 255 254 -235 0
w 255 -254 235 0
w 255 -254 -235 1
w 256 255 236 1
w 256 255 -236 0
w 256 -255 236 0
w 256 -255 -236 1
w 257 256 237 1
w 257 256 -237 0
w 257 -256 237 1
w 257 -256 -237 1
w 258 257 238 1
w 258 257 -238 1
w 258 -257 238 0
w 258 -257 -238 0
w 259 258 239 0.361442
w 259 258 -239 0.202342
w 259 -258 239 0.201247
w 259 -258 -239 0.734121
w 260 259 240 0.724085
w 260 259 -240 0.056276
w 260 -259 240 0.748165
w 260 -259 -240 0.871042
w 261 241 0
w 261 -241 1
w 262 261 242 1
w 262 261 -242 0
w 262 -261 242 0
w 262 -261 -242 1
w 263 262 243 1
w 263 262 -243 0
w 263 -262 243 1
w 263 -262 -243 1
w 264 263 244 0
w 264 263 -244 0
w 264 -263 244 1
w 264 -263 -244 1
w 265 264 245 1
w 265 264 -245 1
w 265 -264 245 1
w 265 -264 -245 0
w 266 265 246 1
w 266 265 -246 1
w 266 -265 246 0
w 266 -265 -246 1
w 267 266 247 0.490816
w 267 266 -247 0.552826
w 267 -266 247 0.148017
w 267 -266 -247 0.359258
w 268 267 248 0.728018
w 268 267 -248 0.77723
w 268 -267 248 0.590821
w 268 -267 -248 0.333714
w 269 268 249 0.880082
w 269 268 -249 0.150498
w 269 -268 249 0.217243
w 269 -268 -249 0.40211
w 270 269 250 0.521002
w 270 269 -250 0.655671
w 270 -269 250 0.288992
w 270 -269 -250 0.12715
w 271 270 251 0.42541
w 271 270 -251 0.681768
w 271 -270 251 0.401726
w 271 -270 -251 0.181861
w 272 271 252 0.451943
w 272 271 -252 0.139559
w 272 -271 252 0.248011
w 272 -271 -252 0.194593
w 273 272 253 0.954468
w 273 272 -253 0.685409
w 273 -272 253 0.374168
w 273 -272 -253 0.102485
w 274 273 254 1
w 274 273 -254 1
w 274 -273 254 0
w 274 -273 -254 0
w 275 274 255 1
w 275 274 -255 1
w 275 -274 255 0
w 275 -274 -255 1
w 276 275 256 1
w 276 275 -256 0
w 276 -275 256 0
w 276 -275 -256 1
w 277 276 257 0.433558
w 277 276 -257 0.654801
w 277 -276 257 0.34238
w 277 -276 -257 0.835284
w 278 277 258 0.940209
w 278 277 -258 0.287227
w 278 -277 258 0.976221
w 278 -277 -258 0.188219
w 279 278 259 0
w 279 278 -259 0
w 279 -278 259 1
w 279 -278 -259 0
w 280 279 260 1
w 280 279 -260 1
w 280 -279 260 1
w 280 -279 -260 0
w 281 261 0
w 281 -261 1
w 282 281 262 1
w 282 281 -262 1
w 282 -281 262 1
w 282 -281 -262 0
w 283 282 263 1
w 283 282 -263 1
w 283 -282 263 1
w 283 -282 -263 0
w 284 283 264 1
w 284 283 -264 0
w 284 -283 264 0
w 284 -283 -264 1
w 285 284 265 0.192081
w 285 284 -265 0.506352
w 285 -284 265 0.428149
w 285 -284 -265 0.989645
w 286 285 266 0.595378
w 286 285 -266 0.161377
w 286 -285 266 0.894212
w 286 -285 -266 0.807275
w 287 286 267 0.969887
w 287 286 -267 0.84107
w 287 -286 267 0.148725
w 287 -286 -267 0.209779
w 288 287 268 0.435244
w 288 287 -268 0.764384
w 288 -287 268 0.511553
w 288 -287 -268 0.945798
w 289 288 269 0
w 289 288 -269 0
w 289 -288 269 1
w 289 -288 -269 1
w 290 289 270 0
w 290 289 -270 0
w 290 -289 270 1
w 290 -289 -270 0
w 291 290 271 0.765303
w 291 290 -271 0.770926
w 291 -290 271 0.12444
w 291 -290 -271 0.193452
w 292 291 272 0.773479
w 292 291 -272 0.78883
w 292 -291 272 0.921948
w 292 -291 -272 0.667691
w 293 292 273 0.606077
w 293 292 -273 0.637578
w 293 -292 273 0.437175
w 293 -292 -273 0.754802
w 294 293 274 0.107257
w 294 293 -274 0.190046
w 294 -293 274 0.611742
w 294 -293 -274 0.618809
w 295 294 275 1
w 295 294 -275 1
w 295 -294 275 1
w 295 -294 -275 0
w 296 295 276 0
w 296 295 -276 0
w 296 -295 276 0
w 296 -295 -276 1
w 297 296 277 0.345368
w 297 296 -277 0.216052
w 297 -296 277 0.567673
w 297 -296 -277 0.469808
w 298 297 278 1
w 298 297 -278 1
w 298 -297 278 0
w 298 -297 -278 0
w 299 298 279 0.794441
w 299 298 -279 0.856269
w 299 -298 279 0.548557
w 299 -298 -279 0.231616
w 300 299 280 0.395914
w 300 299 -280 0.338873
w 300 -299 280 0.801117
w 300 -299 -280 0.007656
w 301 281 0.93696
w 301 -281 0.878787
w 302 301 282 1
w 302 301 -282 1
w 302 -301 282 0
w 302 -301 -282 0
w 303 302 283 0.617583
w 303 302 -283 0.491383
w 303 -302 283 0.748356
w 303 -302 -283 0.962952
w 304 303 284 0.316029
w 304 303 -284 0.43276
w 304 -303 284 0.11694
w 304 -303 -284 0.644274
w 305 304 285 0.315274
w 305 304 -285 0.894465
w 305 -304 285 0.587027
w 305 -304 -285 0.109715
w 306 305 286 0.135584
w 306 305 -286 0.341331
w 306 -305 286 0.361806
w 306 -305 -286 0.531498
w 307 306 287 0.162923
w 307 306 -287 0.539154
w 307 -306 287 0.637885
w 307 -306 -287 0.099883
w 308 307 288 0
w 308 307 -288 0
w 308 -307 288 1
w 308 -307 -288 0
w 309 308 289 0
w 309 308 -289 0
w 309 -308 289 1
w 309 -308 -289 1
w 310 309 290 0.167642
w 310 309 -290 0.00445977
w 310 -309 290 0.865135
w 310 -309 -290 0.811915
w 311 310 291 0.18041
w 311 310 -291 0.706381
w 311 -310 291 0.267534
w 311 -310 -291 0.290125
w 312 311 292 0
w 312 311 -292 1
w 312 -311 292 1
w 312 -311 -292 1
w 313 312 293 0.473771
w 313 312 -293 0.949545
w 313 -312 293 0.0817272
w 313 -312 -293 0.891713
w 314 313 294 0
w 314 313 -294 1
w 314 -313 294 0
w 314 -313 -294 0
w 315 314 295 1
w 315 314 -295 0
w 315 -314 295 0
w 315 -314 -295 0
w 316 315 296 0.16587
w 316 315 -296 0.22648
w 316 -315 296 0.793939
w 316 -315 -296 0.977785
w 317 316 297 0.974349
w 317 316 -297 0.684166
w 317 -316 297 0.174521
w 317 -316 -297 0.264474
w 318 317 298 0
w 318 317 -298 1
w 318 -317 298 0
w 318 -317 -298 1
w 319 318 299 0
w 319 318 -299 1
w 319 -318 299 1
w 319 -318 -299 0
w 320 319 300 0.207541
w 320 319 -300 0.614245
w 320 -319 300 0.921098
w 320 -319 -300 0.249113
w 321 301 0.0677144
w 321 -301 0.899433
w 322 321 302 0.0659426
w 322 321 -302 0.121453
w 322 -321 302 0.863504
w 322 -321 -302 0.231813
w 323 322 303 0
w 323 322 -303 1
w 323 -322 303 1
w 323 -322 -303 0
w 324 323 304 0.429441
w 324 323 -304 0.896266
w 324 -323 304 0.0350449
w 324 -323 -304 0.00708003
w 325 324 305 0.995248
w 325 324 -305 0.519335
w 325 -324 305 0.999786
w 325 -324 -305 0.937295
w 326 325 306 0.15692
w 326 325 -306 0.961069
w 326 -325 306 0.383099
w 326 -325 -306 0.36446
w 327 326 307 0.304197
w 327 326 -307 0.613573
w 327 -326 307 0.329406
w 327 -326 -307 0.371912
w 328 327 308 0.264107
w 328 327 -308 0.437854
w 328 -327 308 0.634459
w 328 -327 -308 0.127611
w 329 328 309 0.982392
w 329 328 -309 0.785054
w 329 -328 309 0.879264
w 329 -328 -309 0.237312
w 330 329 310 0
w 330 329 -310 1
w 330 -329 310 1
w 330 -329 -310 1
w 331 330 311 0.10531
w 331 330 -311 0.803321
w 331 -330 311 0.193168
w 331 -330 -311 0.105095
w 332 331 312 0.698529
w 332 331 -312 0.262015
w 332 -331 312 0.701684
w 332 -331 -312 0.0816283
w 333 332 313 0.276998
w 333 332 -313 0.385826
w 333 -332 313 0.240048
w 333 -332 -313 0.606404
w 334 333 314 0.753054
w 334 333 -314 0.87051
w 334 -333 314 0.195592
w 334 -333 -314 0.387513
w 335 334 315 0.865258
w 335 334 -315 0.369905
w 335 -334 315 0.783176
w 335 -334 -315 0.744523
w 336 335 316 0.200022
w 336 335 -316 0.517551
w 336 -335 316 0.273971
w 336 -335 -316 0.513135
w 337 336 317 0
w 337 336 -317 1
w 337 -336 317 0
w 337 -336 -317 0
w 338 337 318 0.86956
w 338 337 -318 0.839501
w 338 -337 318 0.985555
w 338 -337 -318 0.571244
w 339 338 319 0.61203
w 339 338 -319 0.848242
w 339 -338 319 0.306955
w 339 -338 -319 0.852078
w 340 339 320 0
w 340 339 -320 1
w 340 -339 320 1
w 340 -339 -320 1
w 341 321 0.323278
w 341 -321 0.125543
w 342 341 322 1
w 342 341 -322 0
w 342 -341 322 1
w 342 -341 -322 0
w 343 342 323 1
w 343 342 -323 1
w 343 -342 323 0
w 343 -342 -323 1
w 344 343 324 0
w 344 343 -324 1
w 344 -343 324 1
w 344 -343 -324 0
w 345 344 325 1
w 345 344 -325 1
w 345 -344 325 1
w 345 -344 -325 0
w 346 345 326 0
w 346 345 -326 0
w 346 -345 326 1
w 346 -345 -326 0
w 347 346 327 1
w 347 346 -327 0
w 347 -346 327 1
w 347 -346 -327 1
w 348 347 328 0.571589
w 348 347 -328 0.340766
w 348 -347 328 0.720687
w 348 -347 -328 0.541357
w 349 348 329 0.108303
w 349 348 -329 0.785097
w 349 -348 329 0.466853
w 349 -348 -329 0.821543
w 350 349 330 0.90491
w 350 349 -330 0.663728
w 350 -349 330 0.309155
w 350 -349 -330 0.0665059
w 351 350 331 1
w 351 350 -331 0
w 351 -350 331 1
w 351 -350 -331 0
w 352 351 332 0.789695
w 352 351 -332 0.974421
w 352 -351 332 0.584097
w 352 -351 -332 0.375573
w 353 352 333 1
w 353 352 -333 0
w 353 -352 333 0
w 353 -352 -333 0
w 354 353 334 0.0149154
w 354 353 -334 0.581116
w 354 -353 334 0.861688
w 354 -353 -334 0.735602
w 355 354 335 0
w 355 354 -335 1
w 355 -354 335 0
w 355 -354 -335 0
w 356 355 336 0.884209
w 356 355 -336 0.880693
w 356 -355 336 0.329177
w 356 -355 -336 0.193365
w 357 356 337 0.704651
w 357 356 -337 0.674537
w 357 -356 337 0.160856
w 357 -356 -337 0.363114
w 358 357 338 1
w 358 357 -338 0
w 358 -357 338 1
w 358 -357 -338 0
w 359 358 339 0.662491
w 359 358 -339 0.51828
w 359 -358 339 0.814991
w 359 -358 -339 0.826785
w 360 359 340 0.335912
w 360 359 -340 0.841701
w 360 -359 340 0.108923
w 360 -359 -340 0.1976
w 361 341 0.231396
w 361 -341 0.706529
w 362 361 342 0
w 362 361 -342 0
w 362 -361 342 0
w 362 -361 -342 1
w 363 362 343 0.415834
w 363 362 -343 0.21654
w 363 -362 343 0.510204
w 363 -362 -343 0.120484
w 364 363 344 0.67106
w 364 363 -344 0.483598
w 364 -363 344 0.139932
w 364 -363 -344 0.804753
w 365 364 345 0.363208
w 365 364 -345 0.522545
w 365 -364 345 0.16479
w 365 -364 -345 0.0256991
w 366 365 346 1
w 366 365 -346 0
w 366 -365 346 1
w 366 -365 -346 1
w 367 366 347 0.677555
w 367 366 -347 0.513292
w 367 -366 347 0.271488
w 367 -366 -347 0.908951
w 368 367 348 1
w 368 367 -348 1
w 368 -367 348 1
w 368 -367 -348 0
w 369 368 349 0
w 369 368 -349 1
w 369 -368 349 0
w 369 -368 -349 1
w 370 369 350 0
w 370 369 -350 0
w 370 -369 350 1
w 370 -369 -350 0
w 371 370 351 0
w 371 370 -351 0
w 371 -370 351 1
w 371 -370 -351 0
w 372 371 352 0.0145261
w 372 371 -352 0.580246
w 372 -371 352 0.560031
w 372 -371 -352 0.583158
w 373 372 353 0.254216
w 373 372 -353 0.260713
w 373 -372 353 0.409231
w 373 -372 -353 0.525704
w 374 373 354 1
w 374 373 -354 1
w 374 -373 354 1
w 374 -373 -354 0
w 375 374 355 0.288671
w 375 374 -355 0.996327
w 375 -374 355 0.192938
w 375 -374 -355 0.576303
w 376 375 356 0.508608
w 376 375 -356 0.75501
w 376 -375 356 0.618074
w 376 -375 -356 0.307876
w 377 376 357 0
w 377 376 -357 0
w 377 -376 357 1
w 377 -376 -357 0
w 378 377 358 1
w 378 377 -358 1
w 378 -377 358 1
w 378 -377 -358 0
w 379 378 359 0.820203
w 379 378 -359 0.27729
w 379 -378 359 0.901329
w 379 -378 -359 0.229434
w 380 379 360 0.0709926
w 380 379 -360 0.858487
w 380 -379 360 0.0213937
w 380 -379 -360 0.288573
w 381 361 1
w 381 -361 0
w 382 381 362 0.386001
w 382 381 -362 0.212084
w 382 -381 362 0.153547
w 382 -381 -362 0.357671
w 383 382 363 0.908557
w 383 382 -363 0.975745
w 383 -382 363 0.0285681
w 383 -382 -363 0.982207
w 384 383 364 1
w 384 383 -364 0
w 384 -383 364 1
w 384 -383 -364 1
w 385 384 365 0
w 385 384 -365 0
w 385 -384 365 0
w 385 -384 -365 1
w 386 385 366 0.501112
w 386 385 -366 0.68731
w 386 -385 366 0.0900399
w 386 -385 -366 0.304106
w 387 386 367 0.948527
w 387 386 -367 0.325499
w 387 -386 367 0.0468749
w 387 -386 -367 0.338201
w 388 387 368 0
w 388 387 -368 0
w 388 -387 368 0
w 388 -387 -368 1
w 389 388 369 1
w 389 388 -369 0
w 389 -388 369 0
w 389 -388 -369 1
w 390 389 370 1
w 390 389 -370 1
w 390 -389 370 1
w 390 -389 -370 0
w 391 390 371 0.335864
w 391 390 -371 0.23465
w 391 -390 371 0.830702
w 391 -390 -371 0.121844
w 392 391 372 1
w 392 391 -372 1
w 392 -391 372 0
w 392 -391 -372 1
w 393 392 373 0.133822
w 393 392 -373 0.961419
w 393 -392 373 0.614331
w 393 -392 -373 0.472023
w 394 393 374 0
w 394 393 -374 0
w 394 -393 374 1
w 394 -393 -374 0
w 395 394 375 0
w 395 394 -375 0
w 395 -394 375 0
w 395 -394 -375 1
w 396 395 376 1
w 396 395 -376 0
w 396 -395 376 0
w 396 -395 -376 0
w 397 396 377 0
w 397 396 -377 0
w 397 -396 377 1
w 397 -396 -377 1
w 398 397 378 1
w 398 397 -378 1
w 398 -397 378 0
w 398 -397 -378 0
w 399 398 379 1
w 399 398 -379 0
w 399 -398 379 1
w 399 -398 -379 1
w 400 399 380 0
w 400 399 -380 1
w 400 -399 380 0
w 400 -399 -380 0